100	101942

893 991
747 845
993 1093
87 188
736 836
645 745
530 629
724 825
20 118
253 353
249 348
951 1049
439 539
92 190
178 276
795 893
521 622
286 384
479 578
44 144
15 115
454 554
176 275
565 663
197 297
979 1079
614 714
679 780
838 937
460 558
273 371
857 956
758 858
420 518
913 1012
236 335
41 142
744 845
794 894
524 623
886 984
10 110
361 462
837 937
184 283
793 893
516 614
505 605
411 509
527 626
172 273
247 345
552 651
558 658
186 285
278 377
255 355
700 798
886 984
169 268
299 400
240 341
185 283
699 800
43 144
972 1070
646 747
962 1060
936 1037
295 394
958 1056
577 676
734 833
433 532
141 239
615 715
561 659
875 975
252 353
256 356
348 449
502 603
299 399
850 951
297 398
583 682
964 1062
421 519
855 956
938 1038
524 623
152 251
425 526
46 147
600 701
563 662
713 813
900 999
740 841
340 438
